c SAT Generator for power-law distributed variable frequencies
c -g u -v 20 -c 91 -k 3 -p 2.750000 -b 3.200000 -f /home/schmidt/Devel/ni-kop-sat/data/ensemble/ruf20-91/ruf20-91-450 -u 1 -U 1 -s 3486492671
p cnf 20 91
6 -7 -15 0
-1 -7 18 0
3 -5 -18 0
-1 -13 17 0
-1 -3 11 0
4 9 20 0
-7 -8 -14 0
6 -17 -20 0
-1 8 -16 0
-6 -14 16 0
-3 19 20 0
7 -15 17 0
1 -2 12 0
5 8 -9 0
6 -18 -19 0
2 -4 -20 0
7 12 13 0
3 9 10 0
5 7 -12 0
-9 -12 -13 0
6 -14 -19 0
-1 3 -5 0
-2 -6 19 0
-9 12 16 0
-10 -13 18 0
-15 17 20 0
10 -15 19 0
2 7 12 0
4 -6 -18 0
16 17 -19 0
-3 -9 -17 0
-11 15 -19 0
-4 -12 19 0
-10 16 17 0
9 -14 15 0
-8 11 -16 0
-9 -16 -18 0
7 8 16 0
-16 -17 19 0
-15 17 -18 0
-6 13 -17 0
10 16 18 0
-1 7 -8 0
-4 -10 -18 0
14 19 20 0
1 5 7 0
13 -15 -18 0
-4 12 -15 0
-2 18 19 0
-5 7 10 0
-4 -7 13 0
-3 8 18 0
-8 -14 -19 0
-4 -7 -17 0
1 8 -13 0
5 -6 8 0
4 10 17 0
3 11 19 0
-2 9 13 0
5 -12 -18 0
1 -3 -20 0
4 -13 15 0
2 -4 18 0
5 11 18 0
9 13 16 0
-3 15 -19 0
1 8 19 0
2 11 -13 0
-6 15 -18 0
-15 16 -20 0
-4 11 16 0
-2 7 9 0
-3 10 19 0
4 13 -17 0
2 11 -19 0
7 -19 20 0
3 10 18 0
10 -15 -18 0
5 8 12 0
10 -12 -13 0
1 6 -14 0
13 -17 18 0
-2 -7 11 0
-6 -7 -14 0
-7 -11 -20 0
-1 6 18 0
-7 -16 19 0
-5 18 -19 0
10 17 -18 0
-3 -17 -19 0
6 7 -10 0
